; Label array extracted from bank-full.csv
; Encoding: yes -> 1, no -> 0

(declare-const O (Array Int Int))
(define-fun m () Int 100)

(assert (= (select O 0) 0))
(assert (= (select O 1) 0))
(assert (= (select O 2) 0))
(assert (= (select O 3) 0))
(assert (= (select O 4) 0))
(assert (= (select O 5) 0))
(assert (= (select O 6) 0))
(assert (= (select O 7) 0))
(assert (= (select O 8) 0))
(assert (= (select O 9) 0))
(assert (= (select O 10) 0))
(assert (= (select O 11) 0))
(assert (= (select O 12) 0))
(assert (= (select O 13) 0))
(assert (= (select O 14) 0))
(assert (= (select O 15) 0))
(assert (= (select O 16) 0))
(assert (= (select O 17) 0))
(assert (= (select O 18) 0))
(assert (= (select O 19) 0))
(assert (= (select O 20) 0))
(assert (= (select O 21) 0))
(assert (= (select O 22) 0))
(assert (= (select O 23) 0))
(assert (= (select O 24) 0))
(assert (= (select O 25) 0))
(assert (= (select O 26) 0))
(assert (= (select O 27) 0))
(assert (= (select O 28) 0))
(assert (= (select O 29) 0))
(assert (= (select O 30) 0))
(assert (= (select O 31) 0))
(assert (= (select O 32) 0))
(assert (= (select O 33) 0))
(assert (= (select O 34) 0))
(assert (= (select O 35) 0))
(assert (= (select O 36) 0))
(assert (= (select O 37) 0))
(assert (= (select O 38) 0))
(assert (= (select O 39) 0))
(assert (= (select O 40) 0))
(assert (= (select O 41) 0))
(assert (= (select O 42) 0))
(assert (= (select O 43) 0))
(assert (= (select O 44) 0))
(assert (= (select O 45) 0))
(assert (= (select O 46) 0))
(assert (= (select O 47) 0))
(assert (= (select O 48) 0))
(assert (= (select O 49) 0))
(assert (= (select O 50) 0))
(assert (= (select O 51) 0))
(assert (= (select O 52) 0))
(assert (= (select O 53) 0))
(assert (= (select O 54) 0))
(assert (= (select O 55) 0))
(assert (= (select O 56) 0))
(assert (= (select O 57) 0))
(assert (= (select O 58) 0))
(assert (= (select O 59) 0))
(assert (= (select O 60) 0))
(assert (= (select O 61) 0))
(assert (= (select O 62) 0))
(assert (= (select O 63) 0))
(assert (= (select O 64) 0))
(assert (= (select O 65) 0))
(assert (= (select O 66) 0))
(assert (= (select O 67) 0))
(assert (= (select O 68) 0))
(assert (= (select O 69) 0))
(assert (= (select O 70) 0))
(assert (= (select O 71) 0))
(assert (= (select O 72) 0))
(assert (= (select O 73) 0))
(assert (= (select O 74) 0))
(assert (= (select O 75) 0))
(assert (= (select O 76) 0))
(assert (= (select O 77) 0))
(assert (= (select O 78) 0))
(assert (= (select O 79) 0))
(assert (= (select O 80) 0))
(assert (= (select O 81) 0))
(assert (= (select O 82) 0))
(assert (= (select O 83) 1))
(assert (= (select O 84) 0))
(assert (= (select O 85) 0))
(assert (= (select O 86) 1))
(assert (= (select O 87) 1))
(assert (= (select O 88) 0))
(assert (= (select O 89) 0))
(assert (= (select O 90) 0))
(assert (= (select O 91) 0))
(assert (= (select O 92) 0))
(assert (= (select O 93) 0))
(assert (= (select O 94) 0))
(assert (= (select O 95) 0))
(assert (= (select O 96) 0))
(assert (= (select O 97) 0))
(assert (= (select O 98) 0))
(assert (= (select O 99) 0))

; label set: {0, 1}
(declare-const L (Array Int Int))
(define-fun l () Int 2)

(assert (= (select L 0) 0))
(assert (= (select L 1) 1))

(define-fun-rec sum-if-value ((A (Array Int Int)) (item Int) (size Int)) Int
  (ite (< size 0)
       0
       (ite (= (select A size) item)
            (+ 1 (sum-if-value A item (- size 1)))
            (sum-if-value A item (- size 1))
       )
  )
)

; imbalance tolerance parameter
(define-fun B () Int 2)

(assert
  (not
    (exists ((i Int))
      (and
        (>= i 0)
        (< i l)
        (< (sum-if-value O (select L i) (- m 1))
           (/ m (* l B)))
      )
    )
  )
)

(check-sat)